NAME : P-n22-k2.167191.tour
COMMENT : Length = 167191
COMMENT : Found by LKH [Keld Helsgaun] Sun Dec 17 22:31:41 2017
TYPE : TOUR
DIMENSION : 23
TOUR_SECTION
1
17
2
11
5
12
16
13
4
9
19
20
23
7
21
6
22
8
3
14
10
18
15
-1
EOF
